p cnf 64 0
1 2 3 4 0 
5 6 7 8 0 
9 10 11 12 0 
13 14 15 16 0 
17 18 19 20 0 
21 22 23 24 0 
25 26 27 28 0 
29 30 31 32 0 
33 34 35 36 0 
37 38 39 40 0 
41 42 43 44 0 
45 46 47 48 0 
49 50 51 52 0 
53 54 55 56 0 
57 58 59 60 0 
61 62 63 64 0 
-1 -5 0 
-1 -9 0 
-1 -13 0 
-5 -9 0 
-5 -13 0 
-9 -13 0 
-2 -6 0 
-2 -10 0 
-2 -14 0 
-6 -10 0 
-6 -14 0 
-10 -14 0 
-3 -7 0 
-3 -11 0 
-3 -15 0 
-7 -11 0 
-7 -15 0 
-11 -15 0 
-4 -8 0 
-4 -12 0 
-4 -16 0 
-8 -12 0 
-8 -16 0 
-12 -16 0 
-17 -21 0 
-17 -25 0 
-17 -29 0 
-21 -25 0 
-21 -29 0 
-25 -29 0 
-18 -22 0 
-18 -26 0 
-18 -30 0 
-22 -26 0 
-22 -30 0 
-26 -30 0 
-19 -23 0 
-19 -27 0 
-19 -31 0 
-23 -27 0 
-23 -31 0 
-27 -31 0 
-20 -24 0 
-20 -28 0 
-20 -32 0 
-24 -28 0 
-24 -32 0 
-28 -32 0 
-33 -37 0 
-33 -41 0 
-33 -45 0 
-37 -41 0 
-37 -45 0 
-41 -45 0 
-34 -38 0 
-34 -42 0 
-34 -46 0 
-38 -42 0 
-38 -46 0 
-42 -46 0 
-35 -39 0 
-35 -43 0 
-35 -47 0 
-39 -43 0 
-39 -47 0 
-43 -47 0 
-36 -40 0 
-36 -44 0 
-36 -48 0 
-40 -44 0 
-40 -48 0 
-44 -48 0 
-49 -53 0 
-49 -57 0 
-49 -61 0 
-53 -57 0 
-53 -61 0 
-57 -61 0 
-50 -54 0 
-50 -58 0 
-50 -62 0 
-54 -58 0 
-54 -62 0 
-58 -62 0 
-51 -55 0 
-51 -59 0 
-51 -63 0 
-55 -59 0 
-55 -63 0 
-59 -63 0 
-52 -56 0 
-52 -60 0 
-52 -64 0 
-56 -60 0 
-56 -64 0 
-60 -64 0 
-17 -1 0 
-33 -1 0 
-49 -1 0 
-33 -17 0 
-49 -17 0 
-49 -33 0 
-18 -2 0 
-34 -2 0 
-50 -2 0 
-34 -18 0 
-50 -18 0 
-50 -34 0 
-19 -3 0 
-35 -3 0 
-51 -3 0 
-35 -19 0 
-51 -19 0 
-51 -35 0 
-20 -4 0 
-36 -4 0 
-52 -4 0 
-36 -20 0 
-52 -20 0 
-52 -36 0 
-21 -5 0 
-37 -5 0 
-53 -5 0 
-37 -21 0 
-53 -21 0 
-53 -37 0 
-22 -6 0 
-38 -6 0 
-54 -6 0 
-38 -22 0 
-54 -22 0 
-54 -38 0 
-23 -7 0 
-39 -7 0 
-55 -7 0 
-39 -23 0 
-55 -23 0 
-55 -39 0 
-24 -8 0 
-40 -8 0 
-56 -8 0 
-40 -24 0 
-56 -24 0 
-56 -40 0 
-25 -9 0 
-41 -9 0 
-57 -9 0 
-41 -25 0 
-57 -25 0 
-57 -41 0 
-26 -10 0 
-42 -10 0 
-58 -10 0 
-42 -26 0 
-58 -26 0 
-58 -42 0 
-27 -11 0 
-43 -11 0 
-59 -11 0 
-43 -27 0 
-59 -27 0 
-59 -43 0 
-28 -12 0 
-44 -12 0 
-60 -12 0 
-44 -28 0 
-60 -28 0 
-60 -44 0 
-29 -13 0 
-45 -13 0 
-61 -13 0 
-45 -29 0 
-61 -29 0 
-61 -45 0 
-30 -14 0 
-46 -14 0 
-62 -14 0 
-46 -30 0 
-62 -30 0 
-62 -46 0 
-31 -15 0 
-47 -15 0 
-63 -15 0 
-47 -31 0 
-63 -31 0 
-63 -47 0 
-32 -16 0 
-48 -16 0 
-64 -16 0 
-48 -32 0 
-64 -32 0 
-64 -48 0 
